400
1000
700
699
696
695
694
692
691
690
690
688
688
687
687
687
686
686
685
685
684
684
684
682
681
681
680
680
679
675
675
675
673
673
671
671
671
670
670
669
668
667
666
666
666
663
660
660
660
658
657
653
652
651
648
648
648
648
646
644
644
641
640
638
637
633
632
631
629
629
623
621
619
617
617
613
611
611
609
609
607
606
606
602
601
600
600
594
591
591
590
590
590
590
588
587
586
585
585
584
584
579
578
578
578
576
574
574
573
571
571
569
568
566
565
563
562
561
561
561
560
559
556
555
555
554
553
548
544
542
542
542
541
538
538
537
535
535
532
532
530
528
527
527
526
526
526
525
524
523
523
521
519
518
517
515
514
514
513
512
512
511
509
509
507
503
503
503
498
497
496
496
493
490
489
484
482
480
476
475
474
473
473
472
471
470
469
469
468
467
464
463
456
455
453
452
449
446
444
444
443
443
439
439
439
438
437
436
436
435
430
430
425
425
424
418
418
415
415
414
414
412
411
409
406
406
404
402
400
399
398
395
394
392
391
390
389
389
388
387
387
386
385
384
383
383
381
381
381
380
379
378
376
376
373
371
370
369
368
368
367
367
366
363
363
362
362
361
360
360
358
357
355
355
355
354
352
352
351
350
347
345
345
345
345
343
342
342
341
339
337
337
337
334
333
331
329
327
325
325
324
323
322
321
318
317
315
315
315
314
314
314
313
313
312
312
311
311
311
309
308
303
303
302
301
296
294
293
292
287
285
284
282
279
278
276
275
274
274
273
271
269
268
267
266
265
263
263
262
261
261
261
258
258
255
255
252
251
249
248
248
247
247
246
246
245
244
244
243
241
241
240
238
238
237
234
234
234
233
232
230
230
229
228
228
226
224
222
221
220
219
219
216
214
212
210
207
207
206
205
202
201
